db/data/207119899138342775022188141021615017290.z3.out
sat
-------------------
116.273400606
